Version identifier: 20.1.0.0 | 2020-11-10 | 9bedb6d68
CPXPARAM_Parallel                                1
CPXPARAM_Simplex_Limits_Iterations               10000000
CPXPARAM_MIP_Interval                            100
CPXPARAM_TimeLimit                               900
Found incumbent of value -64460.302916 after 0.00 sec. (0.08 ticks)
Tried aggregator 2 times.
MIP Presolve eliminated 168 rows and 192 columns.
MIP Presolve modified 144 coefficients.
Aggregator did 96 substitutions.
Reduced MIP has 288 rows, 484 columns, and 1944 nonzeros.
Reduced MIP has 48 binaries, 0 generals, 0 SOSs, and 0 indicators.
Presolve time = 0.00 sec. (1.92 ticks)
Probing time = 0.00 sec. (0.07 ticks)
Tried aggregator 1 time.
Detecting symmetries...
Reduced MIP has 288 rows, 484 columns, and 1944 nonzeros.
Reduced MIP has 94 binaries, 0 generals, 0 SOSs, and 0 indicators.
Presolve time = 0.00 sec. (0.90 ticks)
Probing time = 0.00 sec. (0.07 ticks)
MIP emphasis: balance optimality and feasibility.
MIP search method: dynamic search.
Parallel mode: deterministic, using up to 2 threads.
Root relaxation solution time = 0.00 sec. (1.99 ticks)

        Nodes                                         Cuts/
   Node  Left     Objective  IInf  Best Integer    Best Bound    ItCnt     Gap

*     0+    0                       -64460.3029  -198260.1980           207.57%
*     0+    0                       -65363.7745  -198260.1980           203.32%
      0     0   -66003.9141    48   -65363.7745   -66003.9141      165    0.98%
      0     0   -65826.4758    24   -65363.7745     Cuts: 172      279    0.71%
      0     0   -65766.1417    22   -65363.7745      Cuts: 15      294    0.62%
*     0+    0                       -65552.6493   -65766.1417             0.33%
      0     0   -65765.5989    24   -65552.6493    MIRcuts: 6      297    0.32%
*     0+    0                       -65650.7294   -65765.5989             0.17%

Implied bound cuts applied:  79
Mixed integer rounding cuts applied:  4
Gomory fractional cuts applied:  38

Root node processing (before b&c):
  Real time             =    0.05 sec. (27.33 ticks)
Parallel b&c, 2 threads:
  Real time             =    0.00 sec. (0.00 ticks)
  Sync time (average)   =    0.00 sec.
  Wait time (average)   =    0.00 sec.
                          ------------
Total (root+branch&cut) =    0.05 sec. (27.33 ticks)

Optimal whithin tolerances
Solution value = 0.000000

CPLEX Error  1217: No solution exists.
Simplex iterations = 0


Version identifier: 20.1.0.0 | 2020-11-10 | 9bedb6d68
CPXPARAM_Parallel                                1
CPXPARAM_Simplex_Limits_Iterations               10000000
CPXPARAM_MIP_Interval                            100
CPXPARAM_TimeLimit                               900
Problem is feasible; no conflict available.
Version identifier: 20.1.0.0 | 2020-11-10 | 9bedb6d68
CPXPARAM_Parallel                                1
CPXPARAM_Simplex_Limits_Iterations               10000000
CPXPARAM_MIP_Interval                            100
CPXPARAM_TimeLimit                               900
Tried aggregator 2 times.
MIP Presolve eliminated 161 rows and 164 columns.
MIP Presolve modified 102 coefficients.
Aggregator did 109 substitutions.
Reduced MIP has 351 rows, 568 columns, and 2008 nonzeros.
Reduced MIP has 48 binaries, 0 generals, 0 SOSs, and 0 indicators.
Presolve time = 0.00 sec. (1.75 ticks)
Found incumbent of value 2.5340973e+09 after 0.00 sec. (2.36 ticks)
Probing time = 0.00 sec. (0.09 ticks)
Tried aggregator 1 time.
Detecting symmetries...
Reduced MIP has 351 rows, 568 columns, and 2008 nonzeros.
Reduced MIP has 94 binaries, 0 generals, 0 SOSs, and 0 indicators.
Presolve time = 0.00 sec. (0.97 ticks)
Probing time = 0.00 sec. (0.09 ticks)
MIP emphasis: balance optimality and feasibility.
MIP search method: dynamic search.
Parallel mode: deterministic, using up to 2 threads.
Root relaxation solution time = 0.00 sec. (1.52 ticks)

        Nodes                                         Cuts/
   Node  Left     Objective  IInf  Best Integer    Best Bound    ItCnt     Gap

*     0+    0                       2.53410e+09 -8527921.6327           100.34%
*     0+    0                       -64791.2876 -8527921.6327              --- 
      0     0   -66143.0950    24   -64791.2876   -66143.0950      123    2.09%
*     0+    0                       -66054.2875   -66143.0950             0.13%
      0     0        cutoff         -66054.2875                    124    0.00%
Elapsed time = 0.02 sec. (10.05 ticks, tree = 0.01 MB, solutions = 3)

Root node processing (before b&c):
  Real time             =    0.02 sec. (10.10 ticks)
Parallel b&c, 2 threads:
  Real time             =    0.00 sec. (0.00 ticks)
  Sync time (average)   =    0.00 sec.
  Wait time (average)   =    0.00 sec.
                          ------------
Total (root+branch&cut) =    0.02 sec. (10.10 ticks)

Optimal integer solution found
Solution value = 0.000000

CPLEX Error  1217: No solution exists.
Simplex iterations = 0


Version identifier: 20.1.0.0 | 2020-11-10 | 9bedb6d68
CPXPARAM_Parallel                                1
CPXPARAM_Simplex_Limits_Iterations               10000000
CPXPARAM_MIP_Interval                            100
CPXPARAM_TimeLimit                               900
Problem is feasible; no conflict available.
Version identifier: 20.1.0.0 | 2020-11-10 | 9bedb6d68
CPXPARAM_Parallel                                1
CPXPARAM_Simplex_Limits_Iterations               10000000
CPXPARAM_MIP_Interval                            100
CPXPARAM_TimeLimit                               900
Found incumbent of value -64460.302916 after 0.00 sec. (0.08 ticks)
Tried aggregator 2 times.
MIP Presolve eliminated 237 rows and 261 columns.
MIP Presolve modified 141 coefficients.
Aggregator did 96 substitutions.
Reduced MIP has 288 rows, 484 columns, and 1944 nonzeros.
Reduced MIP has 48 binaries, 0 generals, 0 SOSs, and 0 indicators.
Presolve time = 0.00 sec. (1.98 ticks)
Probing time = 0.00 sec. (0.07 ticks)
Tried aggregator 1 time.
Detecting symmetries...
Reduced MIP has 288 rows, 484 columns, and 1944 nonzeros.
Reduced MIP has 94 binaries, 0 generals, 0 SOSs, and 0 indicators.
Presolve time = 0.00 sec. (0.89 ticks)
Probing time = 0.00 sec. (0.07 ticks)
MIP emphasis: balance optimality and feasibility.
MIP search method: dynamic search.
Parallel mode: deterministic, using up to 2 threads.
Root relaxation solution time = 0.00 sec. (1.60 ticks)

        Nodes                                         Cuts/
   Node  Left     Objective  IInf  Best Integer    Best Bound    ItCnt     Gap

*     0+    0                       -64460.3029  -199954.4052           210.20%
*     0+    0                       -66760.6282  -199954.4052           199.51%
      0     0   -67312.1626    48   -66760.6282   -67312.1626      143    0.83%
      0     0   -66901.4356    13   -66760.6282     Cuts: 101      234    0.21%
      0     0   -66881.6265    18   -66760.6282      Cuts: 13      255    0.18%
      0     0   -66877.3204    11   -66760.6282       Cuts: 9      265    0.17%
Detecting symmetries...
      0     2   -66877.3204    11   -66760.6282   -66860.1177      265    0.15%
Elapsed time = 0.06 sec. (28.14 ticks, tree = 0.02 MB, solutions = 1)

Implied bound cuts applied:  96
Mixed integer rounding cuts applied:  3
Gomory fractional cuts applied:  27

Root node processing (before b&c):
  Real time             =    0.05 sec. (27.95 ticks)
Parallel b&c, 2 threads:
  Real time             =    0.01 sec. (5.06 ticks)
  Sync time (average)   =    0.00 sec.
  Wait time (average)   =    0.00 sec.
                          ------------
Total (root+branch&cut) =    0.06 sec. (33.01 ticks)

Optimal integer solution found
Solution value = 0.000000

CPLEX Error  1217: No solution exists.
Simplex iterations = 0


Version identifier: 20.1.0.0 | 2020-11-10 | 9bedb6d68
CPXPARAM_Parallel                                1
CPXPARAM_Simplex_Limits_Iterations               10000000
CPXPARAM_MIP_Interval                            100
CPXPARAM_TimeLimit                               900
Problem is feasible; no conflict available.
Version identifier: 20.1.0.0 | 2020-11-10 | 9bedb6d68
CPXPARAM_Parallel                                1
CPXPARAM_Simplex_Limits_Iterations               10000000
CPXPARAM_MIP_Interval                            100
CPXPARAM_TimeLimit                               900
Tried aggregator 1 time.
LP Presolve eliminated 360 rows and 192 columns.
Aggregator did 69 substitutions.
Reduced LP has 146 rows, 438 columns, and 1182 nonzeros.
Presolve time = 0.00 sec. (0.67 ticks)
Initializing dual steep norms . . .

Iteration log . . .
Iteration:     1   Dual objective     =       -197703.926393
Iteration:    62   Dual objective     =       -100760.411223
Iteration:   134   Dual objective     =        -64793.403452

Optimal solution is available
Solution value = 0.000000

Simplex iterations = 137


Version identifier: 20.1.0.0 | 2020-11-10 | 9bedb6d68
CPXPARAM_Parallel                                1
CPXPARAM_Simplex_Limits_Iterations               10000000
CPXPARAM_MIP_Interval                            100
CPXPARAM_TimeLimit                               900
Problem is feasible; no conflict available.
Version identifier: 20.1.0.0 | 2020-11-10 | 9bedb6d68
CPXPARAM_Parallel                                1
CPXPARAM_Simplex_Limits_Iterations               10000000
CPXPARAM_MIP_Interval                            100
CPXPARAM_TimeLimit                               900
Tried aggregator 1 time.
LP Presolve eliminated 360 rows and 192 columns.
Aggregator did 69 substitutions.
Reduced LP has 146 rows, 438 columns, and 1182 nonzeros.
Presolve time = 0.00 sec. (0.67 ticks)
Initializing dual steep norms . . .

Iteration log . . .
Iteration:     1   Dual objective     =       -197703.989356
Iteration:    62   Dual objective     =       -100760.378772
Iteration:   135   Dual objective     =        -64785.820378

Optimal solution is available
Solution value = 0.000000

Simplex iterations = 137


Version identifier: 20.1.0.0 | 2020-11-10 | 9bedb6d68
CPXPARAM_Parallel                                1
CPXPARAM_Simplex_Limits_Iterations               10000000
CPXPARAM_MIP_Interval                            100
CPXPARAM_TimeLimit                               900
Problem is feasible; no conflict available.
Version identifier: 20.1.0.0 | 2020-11-10 | 9bedb6d68
CPXPARAM_Parallel                                1
CPXPARAM_Simplex_Limits_Iterations               10000000
CPXPARAM_MIP_Interval                            100
CPXPARAM_TimeLimit                               900
Tried aggregator 1 time.
LP Presolve eliminated 360 rows and 192 columns.
Aggregator did 69 substitutions.
Reduced LP has 146 rows, 438 columns, and 1182 nonzeros.
Presolve time = 0.00 sec. (0.67 ticks)
Initializing dual steep norms . . .

Iteration log . . .
Iteration:     1   Dual objective     =       -197703.989816
Iteration:    62   Dual objective     =       -100760.380985
Iteration:   135   Dual objective     =        -64789.420185

Optimal solution is available
Solution value = 0.000000

Simplex iterations = 137


Version identifier: 20.1.0.0 | 2020-11-10 | 9bedb6d68
CPXPARAM_Parallel                                1
CPXPARAM_Simplex_Limits_Iterations               10000000
CPXPARAM_MIP_Interval                            100
CPXPARAM_TimeLimit                               900
Problem is feasible; no conflict available.
